p edge 25 30
e 3 20
e 3 23
e 4 6
e 4 25
e 5 6
e 5 11
e 5 16
e 5 18
e 5 21
e 6 21
e 6 22
e 6 25
e 7 12
e 7 15
e 8 10
e 8 16
e 8 23
e 9 10
e 9 21
e 10 17
e 11 20
e 12 15
e 12 25
e 13 17
e 13 21
e 13 24
e 14 16
e 14 22
e 17 22
e 21 22
